890.0 1276.0
1197.0 1276.0
1228.0 1213.0
1811.0 1276.0
1843.0 1213.0
2118.0 1276.0
2150.0 1213.0
811.0 1520.0
843.0 1504.0
858.0 1701.0
890.0 2607.0
921.0 2544.0
992.0 1961.0
1000.0 2063.0
1197.0 2607.0
1228.0 2544.0
1276.0 1536.0
1299.0 1961.0
1307.0 2063.0
1362.0 1985.0
1362.0 1827.0
1362.0 1622.0
1425.0 1985.0
1425.0 1827.0
1425.0 1622.0
1417.0 1504.0
1488.0 1622.0
1488.0 1827.0
1488.0 1985.0
1551.0 1985.0
1551.0 1827.0
1551.0 1622.0
1614.0 1622.0
1614.0 1827.0
1614.0 1985.0
1732.0 1520.0
1811.0 2607.0
1843.0 2544.0
1913.0 1961.0
1921.0 2063.0
2087.0 1701.0
2118.0 2607.0
2150.0 2544.0
2189.0 1536.0
2220.0 1520.0
2220.0 1961.0
2228.0 2063.0
2244.0 1473.0
1165.0 1701.0
1780.0 1701.0
